# Solution for model 2024-11-07_04-01-30
# Objective value = 1.2121768454598214e+03
start_0 59
start_1 70
start_2 48
start_3 37
start_4 19
start_5 26
start_6 15
start_7 26
start_8 32
start_9 5
start_10 18
start_11 7
start_12 76
start_13 33
start_14 1
start_15 7
start_16 1
start_17 30
start_18 8
start_19 0
start_20 22
start_21 11
start_22 14
start_23 75
hold_0_1 0
hold_0_2 0
hold_0_3 0
hold_0_4 0
hold_0_5 0
hold_0_6 0
hold_0_7 0
hold_0_8 0
hold_0_9 0
hold_0_10 0
hold_0_11 1
hold_0_12 0
hold_1_1 0
hold_1_2 0
hold_1_3 0
hold_1_4 0
hold_1_5 0
hold_1_6 0
hold_1_7 0
hold_1_8 0
hold_1_9 0
hold_1_10 1
hold_1_11 0
hold_1_12 0
hold_2_1 0
hold_2_2 0
hold_2_3 0
hold_2_4 0
hold_2_5 0
hold_2_6 0
hold_2_7 0
hold_2_8 0
hold_2_9 0
hold_2_10 0
hold_2_11 1
hold_2_12 0
hold_3_1 0
hold_3_2 0
hold_3_3 0
hold_3_4 0
hold_3_5 0
hold_3_6 0
hold_3_7 0
hold_3_8 0
hold_3_9 0
hold_3_10 0
hold_3_11 1
hold_3_12 0
hold_4_1 0
hold_4_2 0
hold_4_3 0
hold_4_4 0
hold_4_5 0
hold_4_6 0
hold_4_7 1
hold_5_1 0
hold_5_2 0
hold_5_3 0
hold_5_4 0
hold_5_5 0
hold_5_6 1
hold_5_7 0
hold_6_1 0
hold_6_2 0
hold_6_3 0
hold_6_4 1
hold_7_1 0
hold_7_2 0
hold_7_3 0
hold_7_4 1
hold_8_1 1
hold_8_2 0
hold_8_3 0
hold_8_4 0
hold_9_1 1
hold_9_2 0
hold_9_3 0
hold_9_4 0
hold_10_1 0
hold_10_2 0
hold_10_3 0
hold_10_4 1
hold_11_1 1
hold_11_2 0
hold_11_3 0
hold_11_4 0
hold_12_1 0
hold_12_2 0
hold_12_3 1
hold_12_4 0
hold_13_1 0
hold_13_2 0
hold_13_3 0
hold_13_4 1
hold_14_1 0
hold_14_2 0
hold_14_3 0
hold_14_4 0
hold_14_5 0
hold_14_6 1
hold_14_7 0
hold_15_1 0
hold_15_2 0
hold_15_3 0
hold_15_4 1
hold_15_5 0
hold_15_6 0
hold_15_7 0
hold_16_1 0
hold_16_2 0
hold_16_3 0
hold_16_4 0
hold_16_5 0
hold_16_6 0
hold_16_7 1
hold_17_1 0
hold_17_2 0
hold_17_3 0
hold_17_4 0
hold_17_5 0
hold_17_6 0
hold_17_7 1
hold_18_1 0
hold_18_2 0
hold_18_3 0
hold_18_4 0
hold_18_5 0
hold_18_6 0
hold_18_7 1
hold_19_1 1
hold_19_2 0
hold_19_3 0
hold_19_4 0
hold_19_5 0
hold_19_6 0
hold_19_7 0
hold_20_1 0
hold_20_2 0
hold_20_3 0
hold_20_4 1
hold_21_1 0
hold_21_2 0
hold_21_3 1
hold_21_4 0
hold_22_1 0
hold_22_2 0
hold_22_3 0
hold_22_4 1
hold_23_1 1
hold_23_2 0
hold_23_3 0
hold_23_4 0
flow_source_0 0
flow_source_11 0
flow_source_14 0
flow_source_17 0
flow_source_18 0
flow_source_19 1.2121768454598214e+03
flow_source_21 0
flow_source_3 0
flow_source_5 0
flow_source_7 0
flow_source_8 0
flow_source_9 0
flow_1_sink 1.2121768454598214e+03
flow_14_sink 0
flow_15_sink 0
flow_16_sink 0
flow_18_sink 0
flow_19_sink 0
flow_20_sink 0
flow_21_sink 0
flow_23_sink 0
flow_5_sink 0
flow_6_sink 0
flow_7_sink 0
flow_0_1 1.2121768454598214e+03
flow_1_0 0
flow_0_10 0
flow_10_0 0
flow_0_11 0
flow_11_0 0
flow_0_12 0
flow_12_0 0
flow_0_13 0
flow_13_0 0
flow_0_16 0
flow_16_0 0
flow_0_18 0
flow_18_0 0
flow_0_2 0
flow_2_0 1.2121768454598214e+03
flow_0_23 0
flow_23_0 0
flow_0_3 0
flow_3_0 0
flow_0_6 0
flow_6_0 0
flow_0_7 0
flow_7_0 0
flow_1_14 0
flow_14_1 0
flow_1_15 0
flow_15_1 0
flow_1_16 0
flow_16_1 0
flow_1_2 0
flow_2_1 0
flow_1_21 0
flow_21_1 0
flow_1_22 0
flow_22_1 0
flow_1_3 0
flow_3_1 0
flow_1_4 0
flow_4_1 0
flow_1_5 0
flow_5_1 0
flow_1_6 0
flow_6_1 0
flow_1_8 0
flow_8_1 0
flow_10_11 0
flow_11_10 0
flow_10_12 0
flow_12_10 0
flow_10_13 0
flow_13_10 0
flow_10_16 0
flow_16_10 0
flow_10_20 6.8047426090745535e+02
flow_20_10 0
flow_10_22 0
flow_22_10 6.8047426090745535e+02
flow_11_12 0
flow_12_11 0
flow_11_13 0
flow_13_11 0
flow_11_14 0
flow_14_11 0
flow_11_18 0
flow_18_11 0
flow_11_19 0
flow_19_11 0
flow_11_21 0
flow_21_11 0
flow_12_13 0
flow_13_12 0
flow_12_15 0
flow_15_12 0
flow_12_16 0
flow_16_12 0
flow_12_18 0
flow_18_12 0
flow_12_20 0
flow_20_12 0
flow_12_22 0
flow_22_12 0
flow_13_23 0
flow_23_13 0
flow_14_15 6.8047426090745535e+02
flow_15_14 0
flow_14_16 0
flow_16_14 0
flow_14_17 0
flow_17_14 0
flow_14_18 0
flow_18_14 0
flow_14_19 0
flow_19_14 6.8047426090745910e+02
flow_14_20 0
flow_20_14 0
flow_14_21 0
flow_21_14 0
flow_14_22 0
flow_22_14 0
flow_14_23 0
flow_23_14 0
flow_15_16 0
flow_16_15 0
flow_15_17 0
flow_17_15 0
flow_15_18 0
flow_18_15 0
flow_15_19 0
flow_19_15 0
flow_15_20 0
flow_20_15 0
flow_15_21 6.8047426090745535e+02
flow_21_15 0
flow_15_22 0
flow_22_15 0
flow_15_23 0
flow_23_15 0
flow_16_17 0
flow_17_16 0
flow_16_18 5.3170258455236228e+02
flow_18_16 0
flow_16_19 0
flow_19_16 5.3170258455236228e+02
flow_16_20 0
flow_20_16 0
flow_16_21 0
flow_21_16 0
flow_16_22 0
flow_22_16 0
flow_16_23 0
flow_23_16 0
flow_17_18 0
flow_18_17 0
flow_17_19 0
flow_19_17 0
flow_17_20 0
flow_20_17 0
flow_17_21 0
flow_21_17 0
flow_17_22 0
flow_22_17 0
flow_17_23 0
flow_23_17 0
flow_18_19 0
flow_19_18 0
flow_18_20 0
flow_20_18 0
flow_18_21 0
flow_21_18 0
flow_18_22 0
flow_22_18 0
flow_18_23 0
flow_23_18 0
flow_19_20 0
flow_20_19 0
flow_19_21 0
flow_21_19 0
flow_19_22 0
flow_22_19 0
flow_19_23 0
flow_23_19 0
flow_2_13 0
flow_13_2 0
flow_2_16 0
flow_16_2 0
flow_2_19 0
flow_19_2 0
flow_2_22 0
flow_22_2 0
flow_2_23 0
flow_23_2 0
flow_2_3 0
flow_3_2 1.2121768454598214e+03
flow_2_5 0
flow_5_2 0
flow_2_6 0
flow_6_2 0
flow_2_8 0
flow_8_2 0
flow_2_9 0
flow_9_2 0
flow_20_21 0
flow_21_20 0
flow_20_22 0
flow_22_20 0
flow_20_23 0
flow_23_20 0
flow_21_22 6.8047426090745535e+02
flow_22_21 0
flow_21_23 0
flow_23_21 0
flow_22_23 0
flow_23_22 0
flow_3_10 0
flow_10_3 0
flow_3_12 0
flow_12_3 0
flow_3_13 0
flow_13_3 6.8047426090744852e+02
flow_3_15 0
flow_15_3 0
flow_3_16 0
flow_16_3 0
flow_3_17 0
flow_17_3 5.3170258455237285e+02
flow_3_18 0
flow_18_3 0
flow_3_19 0
flow_19_3 0
flow_3_20 0
flow_20_3 0
flow_4_10 0
flow_10_4 0
flow_4_11 0
flow_11_4 0
flow_4_12 0
flow_12_4 0
flow_4_13 0
flow_13_4 0
flow_4_16 0
flow_16_4 0
flow_4_17 0
flow_17_4 0
flow_4_21 0
flow_21_4 0
flow_4_23 0
flow_23_4 0
flow_4_5 0
flow_5_4 0
flow_4_6 0
flow_6_4 531.702584552366
flow_4_7 531.702584552366
flow_7_4 0
flow_4_8 0
flow_8_4 0
flow_4_9 0
flow_9_4 0
flow_5_10 0
flow_10_5 0
flow_5_11 0
flow_11_5 0
flow_5_12 0
flow_12_5 0
flow_5_13 0
flow_13_5 0
flow_5_16 0
flow_16_5 0
flow_5_20 0
flow_20_5 6.8047426090745535e+02
flow_5_6 0
flow_6_5 0
flow_5_7 0
flow_7_5 0
flow_5_8 6.8047426090745512e+02
flow_8_5 0
flow_5_9 0
flow_9_5 0
flow_6_10 0
flow_10_6 0
flow_6_11 0
flow_11_6 0
flow_6_12 0
flow_12_6 0
flow_6_13 0
flow_13_6 0
flow_6_15 0
flow_15_6 0
flow_6_18 0
flow_18_6 531.702584552366
flow_6_19 0
flow_19_6 0
flow_6_21 0
flow_21_6 0
flow_6_7 0
flow_7_6 0
flow_6_8 0
flow_8_6 0
flow_6_9 0
flow_9_6 0
flow_7_10 0
flow_10_7 0
flow_7_11 0
flow_11_7 0
flow_7_12 0
flow_12_7 0
flow_7_13 0
flow_13_7 0
flow_7_14 0
flow_14_7 0
flow_7_15 0
flow_15_7 0
flow_7_17 5.3170258455237285e+02
flow_17_7 0
flow_7_8 0
flow_8_7 0
flow_7_9 0
flow_9_7 0
flow_8_10 0
flow_10_8 0
flow_8_11 0
flow_11_8 0
flow_8_12 0
flow_12_8 0
flow_8_13 6.8047426090744830e+02
flow_13_8 0
flow_8_16 0
flow_16_8 0
flow_8_9 0
flow_9_8 0
flow_9_10 0
flow_10_9 0
flow_9_11 0
flow_11_9 0
flow_9_12 0
flow_12_9 0
flow_9_13 0
flow_13_9 0
flow_9_17 0
flow_17_9 0
flow_9_18 0
flow_18_9 0
flow_9_19 0
flow_19_9 0
flow_9_22 0
flow_22_9 0
switch_source_0 0
switch_source_11 0
switch_source_14 0
switch_source_17 0
switch_source_18 0
switch_source_19 1
switch_source_21 0
switch_source_3 0
switch_source_5 0
switch_source_7 0
switch_source_8 0
switch_source_9 0
switch_1_sink 1
switch_14_sink 0
switch_15_sink 0
switch_16_sink 0
switch_18_sink 0
switch_19_sink 0
switch_20_sink 0
switch_21_sink 0
switch_23_sink 0
switch_5_sink 0
switch_6_sink 0
switch_7_sink 0
switch_0_1 1
switch_1_0 0
switch_0_10 0
switch_10_0 0
switch_0_11 0
switch_11_0 0
switch_0_12 0
switch_12_0 0
switch_0_13 0
switch_13_0 0
switch_0_16 0
switch_16_0 0
switch_0_18 0
switch_18_0 0
switch_0_2 0
switch_2_0 1
switch_0_23 0
switch_23_0 0
switch_0_3 0
switch_3_0 0
switch_0_6 0
switch_6_0 0
switch_0_7 0
switch_7_0 0
switch_1_14 0
switch_14_1 0
switch_1_15 0
switch_15_1 0
switch_1_16 0
switch_16_1 0
switch_1_2 0
switch_2_1 0
switch_1_21 0
switch_21_1 0
switch_1_22 0
switch_22_1 0
switch_1_3 0
switch_3_1 0
switch_1_4 0
switch_4_1 0
switch_1_5 0
switch_5_1 0
switch_1_6 0
switch_6_1 0
switch_1_8 0
switch_8_1 0
switch_10_11 0
switch_11_10 0
switch_10_12 0
switch_12_10 0
switch_10_13 0
switch_13_10 0
switch_10_16 0
switch_16_10 0
switch_10_20 1
switch_20_10 0
switch_10_22 0
switch_22_10 1
switch_11_12 0
switch_12_11 0
switch_11_13 0
switch_13_11 0
switch_11_14 0
switch_14_11 1
switch_11_18 1
switch_18_11 0
switch_11_19 0
switch_19_11 0
switch_11_21 0
switch_21_11 0
switch_12_13 0
switch_13_12 0
switch_12_15 0
switch_15_12 0
switch_12_16 0
switch_16_12 0
switch_12_18 0
switch_18_12 0
switch_12_20 0
switch_20_12 0
switch_12_22 0
switch_22_12 0
switch_13_23 0
switch_23_13 0
switch_14_15 1
switch_15_14 0
switch_14_16 0
switch_16_14 0
switch_14_17 0
switch_17_14 0
switch_14_18 0
switch_18_14 0
switch_14_19 0
switch_19_14 1
switch_14_20 0
switch_20_14 0
switch_14_21 0
switch_21_14 0
switch_14_22 0
switch_22_14 0
switch_14_23 0
switch_23_14 0
switch_15_16 0
switch_16_15 0
switch_15_17 0
switch_17_15 0
switch_15_18 0
switch_18_15 0
switch_15_19 0
switch_19_15 0
switch_15_20 0
switch_20_15 0
switch_15_21 1
switch_21_15 0
switch_15_22 0
switch_22_15 0
switch_15_23 0
switch_23_15 0
switch_16_17 0
switch_17_16 0
switch_16_18 1
switch_18_16 0
switch_16_19 0
switch_19_16 1
switch_16_20 0
switch_20_16 0
switch_16_21 0
switch_21_16 0
switch_16_22 0
switch_22_16 0
switch_16_23 0
switch_23_16 0
switch_17_18 0
switch_18_17 0
switch_17_19 0
switch_19_17 0
switch_17_20 0
switch_20_17 0
switch_17_21 0
switch_21_17 0
switch_17_22 0
switch_22_17 0
switch_17_23 0
switch_23_17 0
switch_18_19 0
switch_19_18 0
switch_18_20 0
switch_20_18 0
switch_18_21 0
switch_21_18 0
switch_18_22 0
switch_22_18 0
switch_18_23 0
switch_23_18 0
switch_19_20 0
switch_20_19 0
switch_19_21 0
switch_21_19 0
switch_19_22 0
switch_22_19 0
switch_19_23 0
switch_23_19 0
switch_2_13 0
switch_13_2 0
switch_2_16 0
switch_16_2 0
switch_2_19 0
switch_19_2 0
switch_2_22 0
switch_22_2 0
switch_2_23 0
switch_23_2 0
switch_2_3 0
switch_3_2 1
switch_2_5 0
switch_5_2 0
switch_2_6 0
switch_6_2 0
switch_2_8 0
switch_8_2 0
switch_2_9 0
switch_9_2 0
switch_20_21 0
switch_21_20 0
switch_20_22 0
switch_22_20 0
switch_20_23 0
switch_23_20 0
switch_21_22 1
switch_22_21 0
switch_21_23 0
switch_23_21 0
switch_22_23 0
switch_23_22 0
switch_3_10 0
switch_10_3 0
switch_3_12 0
switch_12_3 0
switch_3_13 0
switch_13_3 1
switch_3_15 0
switch_15_3 0
switch_3_16 0
switch_16_3 0
switch_3_17 0
switch_17_3 1
switch_3_18 0
switch_18_3 0
switch_3_19 0
switch_19_3 0
switch_3_20 0
switch_20_3 0
switch_4_10 0
switch_10_4 0
switch_4_11 0
switch_11_4 0
switch_4_12 0
switch_12_4 0
switch_4_13 0
switch_13_4 0
switch_4_16 0
switch_16_4 0
switch_4_17 0
switch_17_4 0
switch_4_21 0
switch_21_4 0
switch_4_23 0
switch_23_4 0
switch_4_5 1
switch_5_4 0
switch_4_6 0
switch_6_4 1
switch_4_7 1
switch_7_4 0
switch_4_8 0
switch_8_4 0
switch_4_9 0
switch_9_4 0
switch_5_10 0
switch_10_5 0
switch_5_11 0
switch_11_5 0
switch_5_12 0
switch_12_5 0
switch_5_13 0
switch_13_5 0
switch_5_16 0
switch_16_5 0
switch_5_20 0
switch_20_5 1
switch_5_6 0
switch_6_5 0
switch_5_7 0
switch_7_5 0
switch_5_8 1
switch_8_5 0
switch_5_9 0
switch_9_5 0
switch_6_10 0
switch_10_6 0
switch_6_11 0
switch_11_6 0
switch_6_12 0
switch_12_6 0
switch_6_13 0
switch_13_6 0
switch_6_15 0
switch_15_6 0
switch_6_18 0
switch_18_6 1
switch_6_19 0
switch_19_6 0
switch_6_21 0
switch_21_6 0
switch_6_7 0
switch_7_6 0
switch_6_8 0
switch_8_6 0
switch_6_9 0
switch_9_6 0
switch_7_10 0
switch_10_7 0
switch_7_11 0
switch_11_7 0
switch_7_12 0
switch_12_7 0
switch_7_13 0
switch_13_7 0
switch_7_14 0
switch_14_7 0
switch_7_15 0
switch_15_7 0
switch_7_17 1
switch_17_7 0
switch_7_8 0
switch_8_7 0
switch_7_9 0
switch_9_7 0
switch_8_10 0
switch_10_8 0
switch_8_11 0
switch_11_8 0
switch_8_12 0
switch_12_8 0
switch_8_13 1
switch_13_8 0
switch_8_16 0
switch_16_8 0
switch_8_9 0
switch_9_8 0
switch_9_10 0
switch_10_9 0
switch_9_11 0
switch_11_9 0
switch_9_12 0
switch_12_9 0
switch_9_13 0
switch_13_9 0
switch_9_17 0
switch_17_9 0
switch_9_18 0
switch_18_9 0
switch_9_19 0
switch_19_9 0
switch_9_22 0
switch_22_9 0
